
Gurobi 12.0.0 (win64) logging started Mon May  4 20:47:51 2026

Set parameter LogFile to value "C:\Users\Asus\Documents\GitHub\logistics-model2\internal-logistics-model2\results\MR_MV_WT\case1\result_MR_MV_WT_case1_P5_R3_eps9999_2026_05_04_20_47.log"
Gurobi Optimizer version 12.0.0 build v12.0.0rc1 (win64 - Windows 10.0 (19045.2))

CPU model: 12th Gen Intel(R) Core(TM) i7-12650H, instruction set [SSE2|AVX|AVX2]
Thread count: 10 physical cores, 16 logical processors, using up to 16 threads

Non-default parameters:
TimeLimit  600
MIPGap  0.01
Presolve  2

Optimize a model with 24417 rows, 7277 columns and 122577 nonzeros
Model fingerprint: 0x2dffa2c9
Variable types: 1157 continuous, 6120 integer (5895 binary)
Coefficient statistics:
  Matrix range     [1e+00, 5e+02]
  Objective range  [1e-03, 1e+00]
  Bounds range     [1e+00, 3e+01]
  RHS range        [1e+00, 1e+04]
Presolve removed 20037 rows and 5808 columns
Presolve time: 0.42s
Presolved: 4380 rows, 1469 columns, 28260 nonzeros
Variable types: 389 continuous, 1080 integer (990 binary)
Root relaxation presolve removed 15 rows and 0 columns
Root relaxation presolved: 4365 rows, 1475 columns, 28077 nonzeros


Root relaxation: objective 0.000000e+00, 346 iterations, 0.06 seconds (0.04 work units)

    Nodes    |    Current Node    |     Objective Bounds      |     Work
 Expl Unexpl |  Obj  Depth IntInf | Incumbent    BestBd   Gap | It/Node Time

     0     0    0.00000    0   67          -    0.00000      -     -    0s
H    0     0                      83.1420000    0.00000   100%     -    0s
     0     0    0.00000    0   75   83.14200    0.00000   100%     -    0s
     0     0    0.00000    0   81   83.14200    0.00000   100%     -    0s
     0     0    3.00000    0   77   83.14200    3.00000  96.4%     -    1s
H    0     0                      76.1340000    3.00000  96.1%     -    1s
H    0     0                      74.1800000    3.00000  96.0%     -    1s
     0     0    3.00000    0   74   74.18000    3.00000  96.0%     -    1s
     0     0    3.00000    0   77   74.18000    3.00000  96.0%     -    1s
H    0     0                      57.1840000    3.00000  94.8%     -    1s
H    0     0                      56.1840000    3.00000  94.7%     -    1s
H    0     0                      56.1830000    3.00000  94.7%     -    1s
H    0     0                      55.1820000    3.00000  94.6%     -    1s
     0     0    3.00000    0   97   55.18200    3.00000  94.6%     -    1s
H    0     0                      53.1640000    3.00000  94.4%     -    1s
     0     0    3.00000    0   92   53.16400    3.00000  94.4%     -    1s
     0     2    3.00000    0   92   53.16400    3.00000  94.4%     -    1s
H  105   108                      44.1710000    6.08290  86.2%  99.2    1s
H  247   202                      44.1240000    9.07844  79.4%  70.0    2s
  3470  1003   15.00000   20   94   44.12400   15.00000  66.0%  35.1    5s
  9940   988     cutoff   53        44.12400   20.00011  54.7%  35.7   10s

Cutting planes:
  Learned: 72
  Gomory: 1
  Cover: 1
  Implied bound: 180
  Clique: 2
  MIR: 60
  Zero half: 4
  RLT: 25
  Relax-and-lift: 13
  PSD: 1

Explored 18498 nodes (596579 simplex iterations) in 14.02 seconds (18.58 work units)
Thread count was 16 (of 16 available processors)

Solution count 10: 44.124 44.171 53.164 ... 83.142

Optimal solution found (tolerance 1.00e-02)
Best objective 4.412400000000e+01, best bound 4.412400000000e+01, gap 0.0000%
